{'code': [6, 19, 14, 15, 16, 1, 1, 15, 1, 17, 16, 6, 7, 14, 19, 2, 12, 18, 10, 11, 4, 1, 5, 13, 16, 
4, 0, 10, 8, 2, 19, 9, 6, 18, 13, 3, 7, 15, 15, 5, 2, 19, 18, 2, 15, 7, 2, 10, 7, 13, 5, 18, 0, 4, 9
, 17, 4, 10, 7, 3, 19, 18, 18, 9, 14, 3, 19, 6, 2, 9, 17, 13, 11, 15, 4, 9, 9, 16, 1, 5, 13, 15, 7, 
7, 14, 11, 6, 13, 1, 17, 0, 0, 16, 16, 14, 13, 16, 15, 12, 6, 17, 15, 8, 5, 8, 4, 3, 5, 3, 8, 6, 4, 
18, 2, 9, 12, 16, 4, 3, 16, 12, 10, 13, 12, 1, 15, 11, 11, 11, 14, 4, 7, 0, 16, 4, 0, 17, 10, 7, 6, 
3, 12, 9, 4, 18, 1, 7, 7, 5, 12, 6, 10, 15, 19, 17, 5, 4, 18, 0, 19, 0, 12, 5, 17, 17, 14, 8, 1, 10,
 8, 15, 9, 6, 1, 9, 5, 0, 3, 6, 8, 13, 12, 14, 5, 16, 4, 12, 14, 8, 9, 10, 14, 2, 3, 12, 19, 6, 17, 
6, 1, 0, 18, 18, 2, 1, 7, 16, 16, 11, 19, 17, 18, 3, 7, 8, 19, 19, 0, 14, 18, 6, 8, 15, 11, 14, 19, 
10, 11, 2, 2, 3, 13, 15, 1, 11, 4, 8, 9, 11, 0], 'route': None, 'mac': [[1, 7, 7, 0, 9, 8, 6, 0, 8, 
3, 1, 8], [7, 4, 1, 4, 1, 5, 6, 0, 2, 0, 3, 3, 6], [6, 4, 1, 1, 3, 3, 0, 0, 4, 2, 2], [9, 0, 0, 7, 3
, 7, 3, 9, 2, 6, 0], [7, 3, 4, 4, 2, 1, 6, 7, 4, 9, 8, 4, 5, 0], [9, 9, 0, 2, 4, 8, 7, 7, 1, 6, 0], 
[7, 7, 4, 3, 0, 9, 1, 4, 8, 0, 5, 1, 3, 9], [0, 4, 4, 6, 8, 6, 5, 1, 1, 5, 1, 6, 4], [7, 1, 0, 3, 4,
 2, 1, 8, 8, 1, 7], [3, 3, 2, 9, 8, 8, 4, 2, 0, 2, 0, 0], [8, 4, 5, 3, 0, 4, 6, 2, 0, 3], [4, 8, 3, 
8, 6, 6, 1, 7, 3, 4, 1], [1, 2, 8, 4, 9, 2, 1, 7, 0, 0, 6], [4, 0, 9, 0, 6, 0, 3, 3, 2, 1], [0, 3, 6
, 5, 4, 8, 1, 4, 3, 2, 1, 5], [7, 0, 2, 8, 7, 6, 6, 1, 0, 0, 3, 6, 0, 4], [1, 8, 6, 7, 4, 4, 0, 6, 1
, 1, 6, 2, 0], [5, 5, 4, 4, 2, 2, 8, 1, 1, 7, 5], [2, 0, 6, 1, 2, 0, 6, 9, 9, 4, 1, 5, 4], [3, 1, 6,
 2, 4, 0, 4, 0, 7, 8, 1, 2, 9]], 'wok': None}
